c ---- [ banner ] ------------------------------------------------------------
c
c Kissat SAT Solver
c 
c Copyright (c) 2021-2024 Armin Biere University of Freiburg
c Copyright (c) 2019-2021 Armin Biere Johannes Kepler University Linz
c 
c Version 4.0.1 43f02cf3e992cb44653b35e5cb26f93281552ae0
c gcc (Ubuntu 13.2.0-23ubuntu4) 13.2.0 -W -Wall -O3 -DNDEBUG
c Thu Sep 12 12:27:46 CEST 2024 Linux abryzen9 6.8.0-41-generic x86_64
c
c ---- [ parsing ] -----------------------------------------------------------
c
c opened and reading DIMACS file:
c
c   /data/artifact/AMulet2.0_artifact/exp4/cnf_compress2rs_64/64_64_U_SP_DT_LF_GenMul_compress2rs.cnf
c
c parsed 'p cnf 34644 135352' header
c closing input after reading 2634301 bytes (3 MB)
c finished parsing after 0.03 seconds
c
c ---- [ options ] -----------------------------------------------------------
c
c --stable=0                       (different from default '1')
c
c ---- [ solving ] -----------------------------------------------------------
c
c  seconds switched rate     size/glue tier1  binary           remaining
c         MB reductions conflicts size  tier2     irredundant
c          level restarts redundant glue  trail           variables
c
c *  0.03 10 0 0 0  0 0   0   0 0.0 0 0 0 0 0% 27434 107916 34641 100%
c (  0.06 12 0 0 0  0 0   0   0 0.0 0 0 0 0 0% 27434 107916 34641 100%
c .  0.07 13 0 0 0  0 0   0   0 0.0 0 0 0 0 0% 27430 107916 34641 100%
c c  0.17 21 0 0 0  0 0   0   0 0.0 0 0 0 0 0% 34334 94108 31189 90%
c d  0.18 21 0 0 0  0 0   0   0 0.0 0 0 0 0 0% 27430 94108 31189 90%
c =  0.24 21 0 0 0  0 0   0   0 0.0 0 0 0 0 0% 27966 94108 30921 89%
c d  0.25 21 0 0 0  0 0   0   0 0.0 0 0 0 0 0% 27430 94108 30921 89%
c f  0.36 19 0 0 0  0 0   0   0 0.0 0 0 0 0 0% 30242 89610 32607 94%
c e  0.50 27 0 0 0  0 0   0   0 0.0 0 0 0 0 0% 8503 103432 21597 62%
c )  0.50 27 0 0 0  0 0   0   0 0.0 0 0 0 0 0% 8503 103432 21597 62%
c {  0.52 27 0 0 0  0 0   0   0 0.0 0 0 2 6 0% 8503 103432 21597 62%
c -  0.84 26 121 0 1 282 32 1001 801 2.5 14 6 3 12 22% 8524 103432 21597 62%
c -  1.38 26 215 0 2 491 45 2002 1526 5.5 52 9 2 12 29% 8533 103432 21597 62%
c c  1.61 21 238 0 2 551 45 2502 1962 5.5 51 9 3 14 30% 8543 103414 21594 62%
c d  1.61 21 238 0 2 551 45 2502 1961 5.5 51 9 3 14 30% 8537 103414 21594 62%
c u  1.63 21 238 0 2 551 45 2502 1550 5.5 51 9 3 14 30% 8542 103414 21594 62%
c v  1.66 21 238 0 2 551 45 2502 1297 5.5 51 9 3 14 30% 8542 103414 21594 62%
c w  1.70 21 238 0 2 551 45 2502 1297 5.5 51 9 3 14 30% 8542 103414 21594 62%
c =  1.84 24 238 0 2 551 45 2502 1297 5.5 51 9 3 14 30% 9074 103414 21328 62%
c d  1.85 24 238 0 2 551 45 2502 1295 5.5 51 9 3 14 30% 8541 103414 21328 62%
c
c  seconds   switched   rate       size/glue tier1     binary          remaining
c         MB  reductions conflicts       size  tier2      irredundant
c           level restarts    redundant    glue    trail          variables
c
c f  1.91 24 238 0 2 551 45 2502 1295 5.5 51 9 3 14 30% 9299 101997 21987 63%
c u  1.95 24 238 0 2 551 45 2502 1231 5.5 51 9 3 14 30% 9301 101997 21987 63%
c v  1.97 24 238 0 2 551 45 2502 1194 5.5 51 9 3 14 30% 9301 101997 21987 63%
c w  2.06 24 238 0 2 551 45 2502 1188 5.5 51 9 3 14 30% 9301 101997 21987 63%
c =  2.17 24 238 0 2 551 45 2502 1188 5.5 51 9 3 14 30% 9929 101997 21673 63%
c d  2.18 24 238 0 2 551 45 2502 1185 5.5 51 9 3 14 30% 9221 101997 21673 63%
c t  2.20 24 238 0 2 551 45 2502 1185 5.5 51 9 3 14 30% 9218 101997 21673 63%
c f  2.24 24 238 0 2 551 45 2502 1185 5.5 51 9 3 14 30% 9804 101118 21966 63%
c -  2.46 26 268 0 3 605 39 3418 1748 4.9 42 9 3 15 31% 9806 101118 21966 63%
c -  2.81 26 368 0 4 716 34 5150 2843 4.3 38 9 2 13 28% 9862 101118 21966 63%
c -  3.16 26 417 0 5 801 31 7150 3975 4.2 34 8 2 12 27% 9914 101118 21966 63%
c c  3.29 26 436 0 5 820 31 7704 4358 4.1 32 8 2 12 26% 9936 101010 21936 63%
c d  3.30 26 436 0 5 820 31 7704 4350 4.1 32 8 2 12 26% 9869 101010 21932 63%
c u  3.33 26 436 0 5 820 31 7704 3513 4.1 32 8 2 12 26% 9875 101010 21932 63%
c v  3.36 26 436 0 5 820 31 7704 2993 4.1 32 8 2 12 26% 9875 101010 21932 63%
c w  3.38 26 436 0 5 820 31 7704 2981 4.1 32 8 2 12 26% 9875 101010 21932 63%
c x  3.40 26 436 0 5 820 31 7704 2981 4.1 32 8 2 12 26% 9875 100646 21932 63%
c =  3.50 26 436 0 5 820 31 7704 2981 4.1 32 8 2 12 26% 10435 100646 21652 63%
c d  3.51 26 436 0 5 820 31 7704 2974 4.1 32 8 2 12 26% 9796 100646 21652 63%
c t  3.52 26 436 0 5 820 31 7704 2974 4.1 32 8 2 12 26% 9792 100646 21652 63%
c
c  seconds   switched   rate       size/glue tier1     binary          remaining
c         MB  reductions conflicts       size  tier2       irredundant
c           level restarts    redundant    glue    trail          variables
c
c f  3.56 26 436 0 5 820 31 7704 2974 4.1 32 8 2 12 26% 11432 98186 22472 65%
c u  3.66 26 436 0 5 820 31 7704 2820 4.1 32 8 2 12 26% 11432 98186 22472 65%
c v  3.69 26 436 0 5 820 31 7704 2713 4.1 32 8 2 12 26% 11432 98186 22472 65%
c w  3.71 26 436 0 5 820 31 7704 2708 4.1 32 8 2 12 26% 11432 98186 22472 65%
c x  3.74 26 436 0 5 820 31 7704 2708 4.1 32 8 2 12 26% 11432 94779 22472 65%
c =  3.83 26 436 0 5 820 31 7704 2708 4.1 32 8 2 12 26% 11868 94777 22254 64%
c d  3.84 26 436 0 5 820 31 7704 2705 4.1 32 8 2 12 26% 11370 94777 22254 64%
c t  3.86 26 436 0 5 820 31 7704 2705 4.1 32 8 2 12 26% 11357 94777 22254 64%
c f  3.90 26 436 0 5 820 31 7704 2705 4.1 32 8 2 12 26% 11373 94753 22262 64%
c -  4.28 26 401 0 6 903 29 9386 3666 4.0 31 8 2 11 27% 11405 94753 22262 64%
c o  4.47 26 387 0 6 965 28 10044 4284 4.0 30 8 2 11 27% 11411 94753 22262 64%
c -  5.01 26 387 0 7 1110 28 11835 5160 3.9 29 7 2 11 28% 11441 94753 22262 64%
c s  5.19 26 378 0 7 1141 28 12505 5776 4.0 29 7 2 11 28% 11451 92673 22262 64%
c e  5.31 26 378 0 7 1141 28 12505 5776 4.0 29 7 2 11 28% 10005 93556 21136 61%
c s  5.32 26 378 0 7 1141 28 12505 5776 4.0 29 7 2 11 28% 10006 92353 21136 61%
c e  5.33 26 378 0 7 1141 28 12505 5776 4.0 29 7 2 11 28% 9936 92423 21114 61%
c ^  5.33 26 378 0 7 1141 28 12505 5776 4.0 29 7 2 11 28% 9936 92423 21114 61%
c -  5.73 26 380 0 8 1270 28 14481 6196 4.0 29 7 2 10 27% 9969 92423 21114 61%
c d  6.06 26 367 0 8 1343 27 15781 7273 4.1 29 7 2 10 27% 9827 92423 21005 61%
c u  6.10 26 367 0 8 1343 27 15781 5909 4.1 29 7 2 10 27% 9838 92423 21005 61%
c
c  seconds   switched    rate        size/glue tier1     binary         remaining
c         MB  reductions   conflicts       size  tier2      irredundant
c           level  restarts     redundant    glue    trail         variables
c
c v  6.16 26 367 0 8 1343 27 15781 5068 4.1 29 7 2 10 27% 9838 92423 21005 61%
c w  6.22 26 367 0 8 1343 27 15781 5068 4.1 29 7 2 10 27% 9838 92423 21005 61%
c x  6.26 26 367 0 8 1343 27 15781 5068 4.1 29 7 2 10 27% 9838 90421 21005 61%
c =  6.48 26 367 0 8 1343 27 15781 5068 4.1 29 7 2 10 27% 11468 90421 20190 58%
c d  6.49 26 367 0 8 1343 27 15781 4955 4.1 29 7 2 10 27% 9430 90421 20190 58%
c t  6.52 26 367 0 8 1343 27 15781 4955 4.1 29 7 2 10 27% 9423 90421 20190 58%
c f  6.58 26 367 0 8 1343 27 15781 4955 4.1 29 7 2 10 27% 9457 90353 20207 58%
c u  6.69 26 367 0 8 1343 27 15781 4566 4.1 29 7 2 10 27% 9459 90353 20207 58%
c v  6.73 26 367 0 8 1343 27 15781 4432 4.1 29 7 2 10 27% 9459 90353 20207 58%
c w  6.78 26 367 0 8 1343 27 15781 4416 4.1 29 7 2 10 27% 9459 90353 20207 58%
c x  6.80 26 367 0 8 1343 27 15781 4416 4.1 29 7 2 10 27% 9460 88804 20207 58%
c =  6.94 28 367 0 8 1343 27 15781 4416 4.1 29 7 2 10 27% 11166 88804 19354 56%
c d  6.95 28 367 0 8 1343 27 15781 4386 4.1 29 7 2 10 27% 9096 88804 19354 56%
c t  6.96 28 367 0 8 1343 27 15781 4386 4.1 29 7 2 10 27% 9093 88804 19354 56%
c -  7.19 28 364 0 9 1422 27 17309 5040 4.0 29 7 2 10 27% 9110 88804 19354 56%
c o  7.63 28 343 0 9 1642 27 20069 7461 4.0 29 7 2 10 28% 9156 88804 19354 56%
c -  7.69 28 340 0 10 1664 27 20310 6753 4.1 30 7 2 9 28% 9157 88804 19354 56%
c -  8.12 28 335 0 11 1851 26 23472 8375 4.1 29 7 2 9 27% 9213 88804 19354 56%
c s  8.24 28 324 0 11 1902 25 25007 9753 4.0 28 7 2 9 27% 9220 87899 19354 56%
c e  8.35 28 324 0 11 1902 25 25007 9753 4.0 28 7 2 9 27% 7997 91461 16444 47%
c
c  seconds   switched     rate        size/glue tier1    binary         remaining
c         MB   reductions   conflicts       size  tier2     irredundant
c           level   restarts     redundant    glue   trail         variables
c
c s  8.37 28 324 0 11 1902 25 25007 9753 4.0 28 7 2 9 27% 7997 87758 16444 47%
c e  8.40 28 324 0 11 1902 25 25007 9753 4.0 28 7 2 9 27% 7979 87791 16424 47%
c ^  8.40 28 324 0 11 1902 25 25007 9753 4.0 28 7 2 9 27% 7979 87791 16424 47%
c -  8.72 28 310 0 12 2010 25 26792 8188 3.9 27 7 2 8 28% 7991 87791 16424 47%
c d  8.73 28 309 0 12 2012 25 26909 8289 3.9 27 7 2 8 28% 7960 87791 16404 47%
c u  8.76 28 309 0 12 2012 25 26909 6920 3.9 27 7 2 8 28% 7974 87791 16404 47%
c v  8.79 28 309 0 12 2012 25 26909 5895 3.9 27 7 2 8 28% 7974 87791 16404 47%
c w  8.80 28 309 0 12 2012 25 26909 5893 3.9 27 7 2 8 28% 7974 87791 16404 47%
c x  8.85 28 309 0 12 2012 25 26909 5888 3.9 27 7 2 8 28% 7974 85383 16404 47%
c =  9.04 28 309 0 12 2012 25 26909 5888 3.9 27 7 2 8 28% 10174 85383 15304 44%
c d  9.04 28 309 0 12 2012 25 26909 5661 3.9 27 7 2 8 28% 7921 85383 15304 44%
c t  9.05 28 309 0 12 2012 25 26909 5661 3.9 27 7 2 8 28% 7915 85383 15304 44%
c f  9.11 28 309 0 12 2012 25 26909 5661 3.9 27 7 2 8 28% 7910 85345 15314 44%
c u  9.13 28 309 0 12 2012 25 26909 5124 3.9 27 7 2 8 28% 7910 85345 15314 44%
c v  9.15 28 309 0 12 2012 25 26909 4982 3.9 27 7 2 8 28% 7910 85345 15314 44%
c w  9.15 28 309 0 12 2012 25 26909 4976 3.9 27 7 2 8 28% 7910 85345 15314 44%
c x  9.23 28 309 0 12 2012 25 26909 4976 3.9 27 7 2 8 28% 7910 79110 15314 44%
c =  9.38 28 309 0 12 2012 25 26909 4976 3.9 27 7 2 8 28% 8994 79103 14772 43%
c d  9.39 28 309 0 12 2012 25 26909 4888 3.9 27 7 2 8 28% 7889 79103 14772 43%
c -  9.83 28 286 0 13 2220 23 30258 6887 3.6 25 7 2 8 28% 7918 79103 14772 43%
c
c  seconds   switched     rate        size/glue tier1    binary         remaining
c         MB   reductions   conflicts       size  tier2     irredundant
c           level   restarts     redundant    glue   trail         variables
c
c - 10.20 28 272 0 14 2432 23 33863 8983 3.5 24 7 2 8 28% 7946 79102 14772 43%
c - 10.75 28 254 0 15 2796 22 37604 10828 3.4 24 7 2 8 28% 7956 79101 14772 43%
c o 10.98 28 246 0 15 2930 22 40071 13063 3.3 23 7 2 8 28% 7968 79101 14772 43%
c c 11.25 28 242 0 15 3075 22 41244 14194 3.3 24 7 2 8 28% 7996 78935 14731 43%
c d 11.26 28 242 0 15 3075 22 41244 14148 3.3 24 7 2 8 28% 7911 78935 14729 43%
c u 11.30 28 242 0 15 3075 22 41244 12094 3.3 24 7 2 8 28% 7920 78935 14729 43%
c v 11.37 28 242 0 15 3075 22 41244 11121 3.3 24 7 2 8 28% 7920 78935 14729 43%
c w 11.41 28 242 0 15 3075 22 41244 11121 3.3 24 7 2 8 28% 7920 78935 14729 43%
c x 11.47 28 242 0 15 3075 22 41244 11119 3.3 24 7 2 8 28% 7920 74294 14729 43%
c = 11.67 28 242 0 15 3075 22 41244 11119 3.3 24 7 2 8 28% 8340 74294 14519 42%
c d 11.67 28 242 0 15 3075 22 41244 10990 3.3 24 7 2 8 28% 7893 74294 14517 42%
c t 11.68 28 242 0 15 3075 22 41244 10990 3.3 24 7 2 8 28% 7889 74294 14517 42%
c u 11.73 28 242 0 15 3075 22 41244 10461 3.3 24 7 2 8 28% 7890 74294 14517 42%
c v 11.79 28 242 0 15 3075 22 41244 9682 3.3 24 7 2 8 28% 7890 74294 14517 42%
c w 11.85 28 242 0 15 3075 22 41244 9666 3.3 24 7 2 8 28% 7890 74294 14517 42%
c x 11.90 28 242 0 15 3075 22 41244 9666 3.3 24 7 2 8 28% 7890 73405 14517 42%
c = 12.11 28 242 0 15 3075 22 41244 9666 3.3 24 7 2 8 28% 8066 73403 14429 42%
c d 12.11 28 242 0 15 3075 22 41244 9631 3.3 24 7 2 8 28% 7880 73403 14429 42%
c - 12.15 28 240 0 16 3084 22 41476 8549 3.3 24 7 2 8 28% 7880 73403 14429 42%
c - 12.60 28 228 0 17 3363 21 45476 10514 3.2 23 7 2 7 28% 7915 73402 14429 42%
c
c  seconds   switched     rate         size/glue tier1    binary         remaining
c         MB   reductions   conflicts        size  tier2     irredundant
c           level   restarts      redundant    glue   trail         variables
c
c - 13.00 28 221 0 18 3583 21 49599 12288 3.2 22 7 2 7 27% 7974 73401 14429 42%
c s 13.27 28 216 0 18 3733 21 52108 14439 3.2 22 7 2 7 27% 7995 70932 14429 42%
c e 13.34 28 216 0 18 3733 21 52108 14439 3.2 22 7 2 7 27% 6995 72889 13458 39%
c s 13.35 28 216 0 18 3733 21 52108 14439 3.2 22 7 2 7 27% 6995 72351 13458 39%
c e 13.36 28 216 0 18 3733 21 52108 14439 3.2 22 7 2 7 27% 6995 72366 13448 39%
c ^ 13.36 28 216 0 18 3733 21 52108 14439 3.2 22 7 2 7 27% 6995 72366 13448 39%
c - 13.67 28 213 0 19 3923 21 53841 12369 3.1 22 7 2 7 27% 7003 72365 13448 39%
c - 14.26 28 209 0 20 4293 21 58199 14399 3.1 21 7 2 6 27% 7035 72363 13448 39%
c c 14.39 28 208 0 20 4355 21 58895 15009 3.1 21 7 2 6 27% 7114 71981 13392 39%
c d 14.39 28 208 0 20 4355 21 58895 14829 3.1 21 7 2 6 27% 7002 71981 13392 39%
c u 14.45 28 208 0 20 4355 21 58895 12414 3.1 21 7 2 6 27% 7024 71981 13392 39%
c v 14.49 28 208 0 20 4355 21 58895 10879 3.1 21 7 2 6 27% 7027 71981 13392 39%
c w 14.53 28 208 0 20 4355 21 58895 10874 3.1 21 7 2 6 27% 7027 71981 13392 39%
c x 14.56 28 208 0 20 4355 21 58895 10873 3.1 21 7 2 6 27% 7027 71910 13392 39%
c d 14.81 28 208 0 20 4355 21 58895 10867 3.1 21 7 2 6 27% 7015 71910 13386 39%
c t 14.82 28 208 0 20 4355 21 58895 10867 3.1 21 7 2 6 27% 7007 71910 13386 39%
c f 14.86 28 208 0 20 4355 21 58895 10867 3.1 21 7 2 6 27% 7010 71897 13388 39%
c c 14.90 28 208 0 20 4355 21 58895 10851 3.1 21 7 2 6 27% 7017 71857 13383 39%
c d 14.90 28 208 0 20 4355 21 58895 10851 3.1 21 7 2 6 27% 7007 71857 13383 39%
c u 14.94 28 208 0 20 4355 21 58895 10368 3.1 21 7 2 6 27% 7013 71857 13383 39%
c
c  seconds   switched     rate         size/glue tier1    binary         remaining
c         MB   reductions   conflicts        size  tier2     irredundant
c           level   restarts      redundant    glue   trail         variables
c
c v 14.96 28 208 0 20 4355 21 58895 10066 3.1 21 7 2 6 27% 7016 71857 13383 39%
c w 15.01 28 208 0 20 4355 21 58895 10030 3.1 21 7 2 6 27% 7016 71857 13383 39%
c d 15.01 28 208 0 20 4355 21 58895 10027 3.1 21 7 2 6 27% 7012 71857 13381 39%
c - 15.55 28 208 0 21 4590 20 62673 12014 3.0 21 7 2 6 27% 7025 71857 13381 39%
c - 16.06 28 203 0 22 4948 20 67256 14246 3.0 21 7 2 6 27% 7085 71857 13381 39%
c o 16.38 28 202 0 22 5172 20 70866 17251 3.0 20 7 2 6 26% 7153 71857 13381 39%
c - 16.60 28 201 0 23 5345 20 71947 16197 3.0 21 7 2 6 26% 7166 71857 13381 39%
c - 17.21 28 200 0 24 5770 20 76743 18011 3.0 21 7 2 6 26% 7208 71856 13381 39%
c d 17.68 28 198 0 24 6113 21 79986 20431 3.0 21 7 2 6 26% 7073 71856 13282 38%
c u 17.74 28 198 0 24 6113 21 79986 16973 3.0 21 7 2 6 26% 7107 71856 13282 38%
c v 17.79 28 198 0 24 6113 21 79986 15232 3.0 21 7 2 6 26% 7111 71856 13282 38%
c w 17.85 28 198 0 24 6113 21 79986 15232 3.0 21 7 2 6 26% 7111 71856 13282 38%
c x 17.92 28 198 0 24 6113 21 79986 15227 3.0 21 7 2 6 26% 7111 69835 13282 38%
c = 18.05 28 198 0 24 6113 21 79986 15227 3.0 21 7 2 6 26% 7249 69833 13213 38%
c d 18.05 28 198 0 24 6113 21 79986 15085 3.0 21 7 2 6 26% 7058 69833 13197 38%
c t 18.06 28 198 0 24 6113 21 79986 15085 3.0 21 7 2 6 26% 7055 69833 13197 38%
c c 18.11 28 198 0 24 6113 21 79986 15067 3.0 21 7 2 6 26% 7074 69757 13187 38%
c d 18.11 28 198 0 24 6113 21 79986 15061 3.0 21 7 2 6 26% 7054 69757 13187 38%
c u 18.16 28 198 0 24 6113 21 79986 14362 3.0 21 7 2 6 26% 7065 69757 13187 38%
c v 18.19 28 198 0 24 6113 21 79986 13978 3.0 21 7 2 6 26% 7066 69757 13187 38%
c
c  seconds   switched     rate         size/glue tier1    binary         remaining
c         MB   reductions   conflicts        size  tier2     irredundant
c           level   restarts      redundant    glue   trail         variables
c
c w 18.26 28 198 0 24 6113 21 79986 13963 3.0 21 7 2 6 26% 7066 69757 13187 38%
c x 18.32 28 198 0 24 6113 21 79986 13962 3.0 21 7 2 6 26% 7066 69376 13187 38%
c = 18.61 28 198 0 24 6113 21 79986 13962 3.0 21 7 2 6 26% 7778 69330 12825 37%
c d 18.61 28 198 0 24 6113 21 79986 13494 3.0 21 7 2 6 26% 6977 69330 12825 37%
c - 18.83 28 196 0 25 6208 21 81641 11882 3.0 21 7 1 6 26% 6980 69330 12825 37%
c - 19.43 28 193 0 26 6644 20 86641 13782 2.9 21 7 1 6 26% 7012 69328 12825 37%
c - 20.03 28 189 0 27 7063 20 91743 15578 2.9 21 7 1 6 26% 7059 69327 12825 37%
c s 20.54 28 188 0 27 7409 20 95837 19282 2.9 21 7 1 6 26% 7078 67583 12825 37%
c e 20.62 28 188 0 27 7409 20 95837 19282 2.9 21 7 1 6 26% 4875 73406 11561 33%
c s 20.63 28 188 0 27 7409 20 95837 19282 2.9 21 7 1 6 26% 4875 73195 11561 33%
c e 20.64 28 188 0 27 7409 20 95837 19282 2.9 21 7 1 6 26% 4873 73271 11528 33%
c ^ 20.64 28 188 0 27 7409 20 95837 19282 2.9 21 7 1 6 26% 4873 73271 11528 33%
c - 20.73 28 187 0 28 7449 20 96939 14076 2.9 20 7 1 6 27% 4887 73271 11528 33%
c - 21.72 28 182 0 29 7963 20 102231 16146 2.9 21 7 1 5 27% 4908 73271 11528 33%
c d 22.45 28 181 0 29 8345 20 104648 18239 2.9 21 7 1 5 27% 4887 73271 11504 33%
c u 22.51 28 181 0 29 8345 20 104648 16200 2.9 21 7 1 5 27% 4900 73271 11504 33%
c v 22.62 28 181 0 29 8345 20 104648 13484 2.9 21 7 1 5 27% 4907 73271 11504 33%
c w 22.83 28 181 0 29 8345 20 104648 13466 2.9 21 7 1 5 27% 4907 73271 11504 33%
c x 22.92 28 181 0 29 8345 20 104648 13466 2.9 21 7 1 5 27% 4907 73141 11504 33%
c = 23.40 28 181 0 29 8345 20 104648 13466 2.9 21 7 1 5 27% 5591 73139 11162 32%
c
c  seconds   switched     rate          size/glue tier1    binary         remaining
c         MB   reductions   conflicts         size  tier2     irredundant
c           level   restarts       redundant    glue   trail         variables
c
c d 23.41 28 181 0 29 8345 20 104648 13038 2.9 21 7 1 5 27% 4831 73139 11162 32%
c t 23.42 28 181 0 29 8345 20 104648 13038 2.9 21 7 1 5 27% 4827 73139 11162 32%
c f 23.50 28 181 0 29 8345 20 104648 13038 2.9 21 7 1 5 27% 4829 73127 11163 32%
c u 23.55 28 181 0 29 8345 20 104648 12304 2.9 21 7 1 5 27% 4830 73127 11163 32%
c v 23.61 28 181 0 29 8345 20 104648 11789 2.9 21 7 1 5 27% 4830 73127 11163 32%
c w 23.91 28 181 0 29 8345 20 104648 11388 2.9 21 7 1 5 27% 4830 73127 11163 32%
c = 24.38 28 181 0 29 8345 20 104648 11388 2.9 21 7 1 5 27% 4934 73127 11111 32%
c d 24.39 28 181 0 29 8345 20 104648 11377 2.9 21 7 1 5 27% 4830 73127 11111 32%
c - 24.98 28 178 0 30 8634 20 107617 12047 2.8 21 7 1 5 27% 4837 73127 11111 32%
c o 25.46 28 175 0 30 8937 20 110867 15098 2.8 21 7 1 5 27% 4840 73127 11111 32%
c - 25.80 28 174 0 31 9232 20 113094 14468 2.8 21 7 1 5 27% 4848 73127 11111 32%
c - 26.37 28 170 0 32 9698 20 118661 16234 2.8 20 7 1 5 27% 4867 73127 11111 32%
c - 27.16 28 168 0 33 10233 20 124318 17605 2.8 20 7 1 5 27% 4903 73127 11111 32%
c - 28.04 28 165 0 34 10805 20 130063 19103 2.8 21 7 1 5 27% 4941 73127 11111 32%
c c 28.57 28 165 0 34 11122 20 132933 21642 2.8 21 8 1 5 27% 4988 72772 11036 32%
c d 28.57 28 165 0 34 11122 20 132933 21153 2.8 21 8 1 5 27% 4838 72772 11036 32%
c u 28.62 28 165 0 34 11122 20 132933 18875 2.8 21 8 1 5 27% 4858 72772 11036 32%
c v 28.69 28 165 0 34 11122 20 132933 15489 2.8 21 8 1 5 27% 4865 72772 11036 32%
c w 28.82 28 165 0 34 11122 20 132933 15454 2.8 21 8 1 5 27% 4865 72772 11036 32%
c x 28.92 28 165 0 34 11122 20 132933 15411 2.8 21 8 1 5 27% 4865 68790 11036 32%
c
c  seconds   switched      rate          size/glue tier1    binary         remaining
c         MB   reductions    conflicts         size  tier2     irredundant
c           level   restarts        redundant    glue   trail         variables
c
c = 29.36 28 165 0 34 11122 20 132933 15411 2.8 21 8 1 5 27% 4903 68790 11017 32%
c d 29.36 28 165 0 34 11122 20 132933 15339 2.8 21 8 1 5 27% 4834 68790 11009 32%
c u 29.44 28 165 0 34 11122 20 132933 14735 2.8 21 8 1 5 27% 4840 68790 11009 32%
c v 29.48 28 165 0 34 11122 20 132933 14036 2.8 21 8 1 5 27% 4844 68790 11009 32%
c w 29.64 28 165 0 34 11122 20 132933 13560 2.8 21 8 1 5 27% 4845 68790 11009 32%
c x 29.73 28 165 0 34 11122 20 132933 13560 2.8 21 8 1 5 27% 4845 68539 11009 32%
c = 30.18 28 165 0 34 11122 20 132933 13560 2.8 21 8 1 5 27% 4857 68539 11003 32%
c d 30.19 28 165 0 34 11122 20 132933 13546 2.8 21 8 1 5 27% 4836 68539 11001 32%
c t 30.19 28 165 0 34 11122 20 132933 13546 2.8 21 8 1 5 27% 4834 68539 11001 32%
c - 30.46 28 165 0 35 11264 20 135896 13664 2.8 21 8 1 5 27% 4844 68539 11001 32%
c - 31.31 28 161 0 36 11778 20 141812 16294 2.7 21 8 1 5 27% 4852 68536 11001 32%
c - 32.26 28 159 0 37 12405 20 147812 18477 2.7 21 8 1 5 28% 4856 68533 11001 32%
c - 32.97 28 156 0 38 12887 20 153894 20092 2.7 21 8 1 5 28% 4870 68532 11001 32%
c i 33.06 28 155 0 38 12940 19 155936 21599 2.7 21 8 1 5 27% 4926 68532 10988 32%
c i 33.08 28 155 0 38 12956 19 156169 21804 2.7 21 8 1 5 27% 4931 68532 10983 32%
c i 33.18 28 154 0 38 13038 19 156829 22389 2.7 21 8 1 5 27% 4936 68532 10982 32%
c i 33.21 28 154 0 38 13056 19 157021 22537 2.7 21 8 1 5 27% 4946 68532 10981 32%
c s 33.39 28 153 0 38 13197 19 157990 23448 2.7 21 8 1 5 27% 4949 68323 10981 32%
c e 33.49 28 153 0 38 13197 19 157990 23448 2.7 21 8 1 5 27% 2522 79347 9389 27%
c 2 33.49 28 153 0 38 13197 19 157990 23448 2.7 21 8 1 5 27% 2520 79347 9389 27%
c
c  seconds   switched      rate          size/glue tier1    binary        remaining
c         MB   reductions    conflicts         size  tier2     irredundant
c           level   restarts        redundant    glue   trail        variables
c
c s 33.51 28 153 0 38 13197 19 157990 23448 2.7 21 8 1 5 27% 2520 78838 9389 27%
c e 33.53 28 153 0 38 13197 19 157990 23448 2.7 21 8 1 5 27% 2514 78968 9347 27%
c ^ 33.53 28 153 0 38 13197 19 157990 23448 2.7 21 8 1 5 27% 2514 78968 9347 27%
c i 33.70 28 153 0 38 13338 19 159214 16440 2.7 21 8 1 5 27% 2516 78968 9346 27%
c - 33.88 28 152 0 39 13457 19 160060 14398 2.7 21 8 1 5 27% 2551 78955 9346 27%
c i 33.88 28 152 0 39 13461 19 160105 14439 2.7 21 8 1 5 27% 2552 78955 9345 27%
c i 33.88 28 152 0 39 13461 19 160123 14447 2.7 21 8 1 5 27% 2554 78955 9344 27%
c i 33.95 28 152 0 39 13525 19 160783 14986 2.7 21 8 1 5 27% 2561 78955 9343 27%
c o 33.96 28 152 0 39 13528 19 160899 15094 2.7 21 8 1 5 27% 2561 78955 9343 27%
c c 34.45 28 149 0 39 13916 19 164987 18726 2.6 21 8 1 5 27% 2609 78389 9288 27%
c d 34.45 28 149 0 39 13916 19 164987 18421 2.6 21 8 1 5 27% 2506 78384 9288 27%
c d 34.46 28 149 0 39 13916 19 164987 18418 2.6 21 8 1 5 27% 2500 78379 9285 27%
c u 34.49 28 149 0 39 13916 19 164987 16560 2.6 21 8 1 5 27% 2527 78379 9283 27%
c v 34.55 28 149 0 39 13916 19 164987 13475 2.6 21 8 1 5 27% 2526 78379 9283 27%
c w 34.72 28 149 0 39 13916 19 164987 12847 2.6 21 8 1 5 27% 2522 78379 9283 27%
c = 35.21 28 149 0 39 13916 19 164987 12847 2.6 21 8 1 5 27% 2618 78226 9225 27%
c d 35.21 28 149 0 39 13916 19 164987 12688 2.6 21 8 1 5 27% 2501 78218 9224 27%
c t 35.22 28 149 0 39 13916 19 164987 12688 2.6 21 8 1 5 27% 2499 78218 9224 27%
c f 35.32 28 149 0 39 13916 19 164987 12688 2.6 21 8 1 5 27% 2522 77636 9250 27%
c u 35.38 28 149 0 39 13916 19 164987 12402 2.6 21 8 1 5 27% 2510 77636 9250 27%
c
c  seconds   switched      rate          size/glue tier1    binary        remaining
c         MB   reductions    conflicts         size  tier2     irredundant
c           level   restarts        redundant    glue   trail        variables
c
c v 35.42 28 149 0 39 13916 19 164987 11971 2.6 21 8 1 5 27% 2510 77636 9250 27%
c w 35.55 28 149 0 39 13916 19 164987 11762 2.6 21 8 1 5 27% 2510 77636 9250 27%
c x 35.63 28 149 0 39 13916 19 164987 11762 2.6 21 8 1 5 27% 2510 77582 9250 27%
c = 36.09 28 149 0 39 13916 19 164987 11762 2.6 21 8 1 5 27% 2558 77498 9223 27%
c d 36.09 28 149 0 39 13916 19 164987 11736 2.6 21 8 1 5 27% 2504 77498 9223 27%
c i 36.11 28 149 0 39 13916 19 164987 11736 2.6 21 8 1 5 27% 2504 77498 9223 27%
c - 36.17 28 148 0 40 14004 19 166304 10609 2.6 21 8 1 5 27% 2504 77495 9223 27%
c i 36.20 28 146 0 40 14078 19 167693 11738 2.6 20 8 1 5 27% 2510 77494 9222 27%
c i 36.21 28 146 0 40 14079 19 167766 11776 2.6 20 8 1 5 27% 2513 77494 9221 27%
c i 36.23 28 144 0 40 14112 18 169360 13112 2.6 20 8 1 5 26% 2527 77493 9220 27%
c i 36.23 28 144 0 40 14112 18 169363 13112 2.6 20 8 1 5 26% 2528 77493 9211 27%
c i 36.23 28 144 0 40 14112 18 169397 13135 2.6 20 8 1 5 26% 2530 77493 9208 27%
c } 36.23 28 144 0 40 14112 18 169399 13135 2.6 20 8 1 5 26% 2530 77493 9203 27%
c 0 36.23 28 144 0 40 14112 18 169399 13135 2.6 20 8 1 5 26% 2530 77493 9203 27%
c
c ---- [ result ] ------------------------------------------------------------
c
s UNSATISFIABLE
c
c ---- [ profiling ] ---------------------------------------------------------
c
c          24.08   66.45 %  search
c          24.08   66.45 %  focused
c          11.63   32.10 %  simplify
c          11.20   30.91 %  probe
c           5.02   13.84 %  sweep
c           4.16   11.48 %  vivify
c           0.76    2.11 %  factor
c           0.72    1.99 %  eliminate
c           0.59    1.63 %  congruence
c           0.49    1.36 %  substitute
c           0.44    1.22 %  preprocess
c           0.19    0.53 %  reduce
c           0.14    0.39 %  fastel
c           0.14    0.37 %  subsume
c           0.12    0.33 %  transitive
c           0.06    0.16 %  backbone
c           0.05    0.13 %  lucky
c           0.03    0.10 %  parse
c =============================================
c          36.23  100.00 %  total
c
c ---- [ statistics ] --------------------------------------------------------
c
c chronological:                         4576                3 %  conflicts
c conflicts:                           169399             4675.15 per second
c congruent:                             3727               11 %  variables
c decisions:                          3108572               18.35 per conflict
c eliminated:                           19000               55 %  variables
c factored:                              3522               10 %  variables
c fast_eliminated:                      11010               58 %  eliminated
c fast_subsumed:                           59                0 %  per subsumed
c iterations:                              14                0 %  variables
c propagations:                     141927454          3916974    per second
c reductions:                              40             4235    interval
c reordered:                                6            28233    interval
c restarts:                             14112               12    interval
c strengthened:                          4490                0 %  checks
c substituted:                           9894               29 %  variables
c subsumed:                             13540                0 %  checks
c switched:                                 0                0    interval
c vivified:                             84525               14 %  checks
c
c ---- [ glue usage ] --------------------------------------------------------
c
c focused glue 1 used 259951 clauses 57.43% accumulated 57.43% tier1
c focused glue 2 used  95006 clauses 20.99% accumulated 78.42%
c focused glue 3 used  29073 clauses  6.42% accumulated 84.84%
c focused glue 4 used  16986 clauses  3.75% accumulated 88.59%
c focused glue 5 used  11215 clauses  2.48% accumulated 91.07% tier2
c
c ---- [ resources ] ---------------------------------------------------------
c
c maximum-resident-set-size:         29212672 bytes         28 MB
c process-time:                            36s              36.23 seconds
c
c ---- [ shutting down ] -----------------------------------------------------
c
c exit 20
